MLW01
Position Depot: Center
Horizon for Depot: Large
Position of customers: Mixt
Distribution of the demand: Small
Width of time windows: Wide
Distribution of the service: Small

VEHICLE 
NUMBER 	 CAPACITY 
 12 	 	 62 
 
CUSTOMER
CUST NO. 	 XCOORD.  	 YCOORD. 	 DEMAND 	 READY TIME 	 DUE DATE 	 SERVICE TIME 
 0 	 	 500 	 	 500 	 	 0 	 	 0 	 	 4936 	 	 0 
  1 	 	 115 	 	 205 	 	 9 	 	 4402 	 	 4770 	 	 87 
  2 	 	 809 	 	 546 	 	 6 	 	 60 	 	 517 	 	 82 
  3 	 	 328 	 	 157 	 	 7 	 	 2292 	 	 2497 	 	 54 
  4 	 	 327 	 	 588 	 	 8 	 	 472 	 	 771 	 	 92 
  5 	 	 273 	 	 191 	 	 9 	 	 548 	 	 952 	 	 54 
  6 	 	 594 	 	 675 	 	 7 	 	 1885 	 	 2113 	 	 50 
  7 	 	 716 	 	 192 	 	 8 	 	 3880 	 	 4255 	 	 64 
  8 	 	 685 	 	 623 	 	 9 	 	 1686 	 	 2033 	 	 97 
  9 	 	 745 	 	 558 	 	 9 	 	 3571 	 	 3834 	 	 89 
  10 	 	 102 	 	 78 	 	 7 	 	 1383 	 	 1804 	 	 97 
  11 	 	 274 	 	 293 	 	 6 	 	 3984 	 	 4466 	 	 64 
  12 	 	 715 	 	 217 	 	 9 	 	 4633 	 	 4915 	 	 84 
  13 	 	 935 	 	 504 	 	 5 	 	 4167 	 	 4423 	 	 51 
  14 	 	 321 	 	 282 	 	 6 	 	 3584 	 	 4032 	 	 94 
  15 	 	 715 	 	 159 	 	 9 	 	 3584 	 	 3955 	 	 60 
  16 	 	 779 	 	 607 	 	 9 	 	 1838 	 	 2149 	 	 84 
  17 	 	 310 	 	 329 	 	 7 	 	 4433 	 	 4650 	 	 58 
  18 	 	 242 	 	 178 	 	 9 	 	 514 	 	 991 	 	 92 
  19 	 	 129 	 	 200 	 	 5 	 	 518 	 	 791 	 	 70 
  20 	 	 315 	 	 557 	 	 7 	 	 -117 	 	 212 	 	 86 
  21 	 	 876 	 	 519 	 	 10 	 	 1393 	 	 1860 	 	 70 
  22 	 	 335 	 	 611 	 	 10 	 	 -120 	 	 293 	 	 91 
  23 	 	 744 	 	 130 	 	 8 	 	 2288 	 	 2509 	 	 77 
  24 	 	 611 	 	 619 	 	 7 	 	 2151 	 	 2442 	 	 79 
  25 	 	 328 	 	 572 	 	 8 	 	 -27 	 	 322 	 	 88 
  26 	 	 648 	 	 224 	 	 9 	 	 2834 	 	 3305 	 	 76 
  27 	 	 459 	 	 628 	 	 10 	 	 1696 	 	 1911 	 	 55 
  28 	 	 269 	 	 697 	 	 10 	 	 527 	 	 904 	 	 93 
  29 	 	 697 	 	 271 	 	 8 	 	 3113 	 	 3526 	 	 90 
  30 	 	 56 	 	 123 	 	 8 	 	 2105 	 	 2599 	 	 62 
  31 	 	 105 	 	 166 	 	 9 	 	 718 	 	 990 	 	 94 
  32 	 	 653 	 	 694 	 	 8 	 	 1369 	 	 1610 	 	 61 
  33 	 	 305 	 	 207 	 	 10 	 	 4347 	 	 4810 	 	 63 
  34 	 	 615 	 	 229 	 	 7 	 	 699 	 	 1073 	 	 63 
  35 	 	 229 	 	 168 	 	 7 	 	 3517 	 	 3924 	 	 66 
  36 	 	 708 	 	 123 	 	 5 	 	 3831 	 	 4117 	 	 50 
  37 	 	 108 	 	 167 	 	 10 	 	 3575 	 	 4028 	 	 89 
  38 	 	 549 	 	 183 	 	 5 	 	 3820 	 	 4192 	 	 56 
  39 	 	 856 	 	 550 	 	 9 	 	 1454 	 	 1728 	 	 100 
  40 	 	 746 	 	 498 	 	 8 	 	 3683 	 	 4039 	 	 95 
  41 	 	 627 	 	 708 	 	 7 	 	 2163 	 	 2524 	 	 83 
  42 	 	 71 	 	 146 	 	 6 	 	 3510 	 	 3981 	 	 79 
  43 	 	 385 	 	 238 	 	 6 	 	 3358 	 	 3765 	 	 56 
  44 	 	 309 	 	 331 	 	 7 	 	 3765 	 	 4178 	 	 87 
  45 	 	 351 	 	 219 	 	 9 	 	 3257 	 	 3544 	 	 92 
  46 	 	 733 	 	 551 	 	 6 	 	 4373 	 	 4726 	 	 54 
  47 	 	 389 	 	 241 	 	 10 	 	 76 	 	 569 	 	 82 
  48 	 	 808 	 	 543 	 	 7 	 	 1310 	 	 1800 	 	 73 
  49 	 	 666 	 	 216 	 	 9 	 	 3534 	 	 3765 	 	 100 
  50 	 	 863 	 	 218 	 	 6 	 	 512 	 	 957 	 	 68 
  51 	 	 826 	 	 668 	 	 8 	 	 593 	 	 996 	 	 87 
  52 	 	 282 	 	 735 	 	 9 	 	 715 	 	 1131 	 	 71 
  53 	 	 702 	 	 238 	 	 8 	 	 200 	 	 493 	 	 88 
  54 	 	 227 	 	 229 	 	 5 	 	 573 	 	 888 	 	 93 
  55 	 	 82 	 	 207 	 	 5 	 	 2111 	 	 2434 	 	 66 
  56 	 	 687 	 	 492 	 	 6 	 	 699 	 	 1037 	 	 87 
  57 	 	 558 	 	 113 	 	 8 	 	 277 	 	 543 	 	 74 
  58 	 	 943 	 	 364 	 	 6 	 	 4125 	 	 4580 	 	 82 
  59 	 	 487 	 	 259 	 	 9 	 	 3601 	 	 4060 	 	 98 
  60 	 	 549 	 	 495 	 	 10 	 	 1447 	 	 1746 	 	 70 
  61 	 	 857 	 	 136 	 	 9 	 	 2249 	 	 2539 	 	 60 
  62 	 	 555 	 	 988 	 	 9 	 	 158 	 	 608 	 	 81 
  63 	 	 753 	 	 460 	 	 6 	 	 2046 	 	 2355 	 	 63 
  64 	 	 845 	 	 632 	 	 8 	 	 3797 	 	 4122 	 	 60 
  65 	 	 980 	 	 34 	 	 7 	 	 4709 	 	 4918 	 	 61 
  66 	 	 14 	 	 61 	 	 9 	 	 2901 	 	 3388 	 	 63 
  67 	 	 54 	 	 686 	 	 7 	 	 946 	 	 1222 	 	 79 
  68 	 	 708 	 	 54 	 	 5 	 	 666 	 	 1164 	 	 56 
  69 	 	 859 	 	 426 	 	 5 	 	 3772 	 	 4166 	 	 84 
  70 	 	 406 	 	 461 	 	 5 	 	 899 	 	 1196 	 	 72 
  71 	 	 607 	 	 783 	 	 9 	 	 3899 	 	 4182 	 	 55 
  72 	 	 161 	 	 379 	 	 6 	 	 4607 	 	 4812 	 	 99 
  73 	 	 61 	 	 600 	 	 8 	 	 359 	 	 764 	 	 96 
  74 	 	 14 	 	 1000 	 	 10 	 	 1079 	 	 1575 	 	 51 
  75 	 	 37 	 	 495 	 	 10 	 	 639 	 	 1104 	 	 51 
  76 	 	 87 	 	 393 	 	 9 	 	 681 	 	 1154 	 	 71 
  77 	 	 201 	 	 419 	 	 10 	 	 3259 	 	 3522 	 	 96 
  78 	 	 242 	 	 989 	 	 5 	 	 348 	 	 608 	 	 90 
  79 	 	 832 	 	 376 	 	 9 	 	 3274 	 	 3765 	 	 86 
  80 	 	 357 	 	 427 	 	 7 	 	 295 	 	 693 	 	 91 
  81 	 	 393 	 	 970 	 	 6 	 	 677 	 	 1041 	 	 57 
  82 	 	 425 	 	 153 	 	 10 	 	 4058 	 	 4448 	 	 83 
  83 	 	 724 	 	 936 	 	 10 	 	 4712 	 	 4936 	 	 91 
  84 	 	 797 	 	 89 	 	 8 	 	 3140 	 	 3586 	 	 82 
  85 	 	 473 	 	 961 	 	 8 	 	 4174 	 	 4562 	 	 95 
  86 	 	 522 	 	 343 	 	 6 	 	 -81 	 	 174 	 	 100 
  87 	 	 526 	 	 711 	 	 9 	 	 1632 	 	 1953 	 	 96 
  88 	 	 6 	 	 474 	 	 8 	 	 1054 	 	 1521 	 	 97 
  89 	 	 235 	 	 840 	 	 6 	 	 2701 	 	 2973 	 	 99 
  90 	 	 667 	 	 806 	 	 5 	 	 1414 	 	 1843 	 	 73 
  91 	 	 98 	 	 842 	 	 9 	 	 4164 	 	 4548 	 	 88 
  92 	 	 439 	 	 285 	 	 7 	 	 2641 	 	 3073 	 	 76 
  93 	 	 95 	 	 388 	 	 9 	 	 725 	 	 1018 	 	 73 
  94 	 	 861 	 	 233 	 	 9 	 	 3265 	 	 3696 	 	 55 
  95 	 	 14 	 	 836 	 	 9 	 	 2808 	 	 3290 	 	 66 
  96 	 	 96 	 	 326 	 	 5 	 	 524 	 	 960 	 	 71 
  97 	 	 602 	 	 335 	 	 8 	 	 1842 	 	 2320 	 	 55 
  98 	 	 248 	 	 456 	 	 10 	 	 3084 	 	 3379 	 	 88 
  99 	 	 951 	 	 196 	 	 7 	 	 385 	 	 598 	 	 68 
  100 	 	 323 	 	 458 	 	 9 	 	 1886 	 	 2253 	 	 53 
 